c Generated map
c Size: 8 * 8, weights in range: 1 to 10, walls: True, with ratio 0.1
c dim 8 of 10
c
p sp 64 90
c graph contains 64 nodes and 90 arcs
c
a 1 2 6
a 2 1 6
a 2 10 1
a 10 2 1
a 2 3 7
a 3 2 7
a 3 11 4
a 11 3 4
a 3 4 9
a 4 3 9
a 4 12 6
a 12 4 6
a 4 5 10
a 5 4 10
a 5 13 3
a 13 5 3
a 5 6 7
a 6 5 7
a 6 14 5
a 14 6 5
a 6 7 4
a 7 6 4
a 7 15 1
a 15 7 1
a 7 8 5
a 8 7 5
a 8 16 8
a 16 8 8
a 10 18 6
a 18 10 6
a 10 11 10
a 11 10 10
a 11 19 10
a 19 11 10
a 11 12 8
a 12 11 8
a 12 20 7
a 20 12 7
a 12 13 8
a 13 12 8
a 13 14 2
a 14 13 2
a 14 22 7
a 22 14 7
a 14 15 2
a 15 14 2
a 15 23 9
a 23 15 9
a 15 16 4
a 16 15 4
a 16 24 6
a 24 16 6
a 17 25 6
a 25 17 6
a 17 18 8
a 18 17 8
a 18 26 7
a 26 18 7
a 18 19 5
a 19 18 5
a 19 27 5
a 27 19 5
a 19 20 2
a 20 19 2
a 20 28 2
a 28 20 2
a 22 30 1
a 30 22 1
a 22 23 1
a 23 22 1
a 23 31 6
a 31 23 6
a 23 24 4
a 24 23 4
a 24 32 6
a 32 24 6
a 25 33 9
a 33 25 9
a 25 26 10
a 26 25 10
a 26 34 1
a 34 26 1
a 26 27 9
a 27 26 9
a 27 35 9
a 35 27 9
a 27 28 4
a 28 27 4
a 28 36 6
a 36 28 6
a 28 29 3
a 29 28 3
a 29 37 1
a 37 29 1
a 29 30 9
a 30 29 9
a 30 38 7
a 38 30 7
a 30 31 8
a 31 30 8
a 31 39 10
a 39 31 10
a 31 32 3
a 32 31 3
a 32 40 3
a 40 32 3
a 33 41 4
a 41 33 4
a 33 34 3
a 34 33 3
a 34 42 8
a 42 34 8
a 34 35 5
a 35 34 5
a 35 43 8
a 43 35 8
a 35 36 9
a 36 35 9
a 36 44 7
a 44 36 7
a 36 37 2
a 37 36 2
a 37 45 4
a 45 37 4
a 37 38 4
a 38 37 4
a 38 39 6
a 39 38 6
a 39 47 2
a 47 39 2
a 39 40 7
a 40 39 7
a 40 48 10
a 48 40 10
a 41 49 6
a 49 41 6
a 41 42 8
a 42 41 8
a 42 50 1
a 50 42 1
a 42 43 6
a 43 42 6
a 43 44 6
a 44 43 6
a 44 52 4
a 52 44 4
a 44 45 3
a 45 44 3
a 45 53 4
a 53 45 4
a 47 48 10
a 48 47 10
a 48 56 10
a 56 48 10
a 49 57 1
a 57 49 1
a 49 50 5
a 50 49 5
a 50 58 3
a 58 50 3
a 52 60 1
a 60 52 1
a 52 53 2
a 53 52 2
a 53 54 2
a 54 53 2
a 54 62 3
a 62 54 3
a 56 64 1
a 64 56 1
a 57 58 8
a 58 57 8
a 58 59 3
a 59 58 3
a 59 60 4
a 60 59 4
a 62 63 6
a 63 62 6
a 63 64 8
a 64 63 8
